words_train/words_427_SAT.qaiger
aag 85 16 0 1 69
32
10
14
8
22
4
20
26
6
30
12
2
18
16
28
24
170
34 21 19
36 34 23
38 36 25
40 38 27
42 40 29
44 42 31
46 16 14
48 46 12
50 48 10
52 50 8
54 52 6
56 54 4
58 33 2
60 32 3
62 61 59
64 62 57
66 63 56
68 67 65
70 68 44
72 69 45
74 73 71
76 55 5
78 77 57
80 43 30
82 81 45
84 82 78
86 83 79
88 53 7
90 89 55
92 41 28
94 93 43
96 95 91
98 94 90
100 51 9
102 101 53
104 39 26
106 105 41
108 107 103
110 106 102
112 49 11
114 113 51
116 37 24
118 117 39
120 119 115
122 47 13
124 123 49
126 35 22
128 127 37
130 128 124
132 129 125
134 47 35
136 19 16
138 137 20
140 138 15
142 141 134
144 142 133
146 118 114
148 147 145
150 148 131
152 151 121
154 153 111
156 155 109
158 157 99
160 159 97
162 160 87
164 163 85
166 165 75
168 164 74
170 169 167
i0 1 x[7]
i1 2 z[4]
i2 2 z[6]
i3 2 z[3]
i4 1 x[2]
i5 2 z[1]
i6 1 x[1]
i7 1 x[4]
i8 2 z[2]
i9 1 x[6]
i10 2 z[5]
i11 2 z[0]
i12 1 x[0]
i13 2 z[7]
i14 1 x[5]
i15 1 x[3]
o0 bv[0]
c
simplified
  >
    1 x
    add
      reverse
        2 z
      and
        1
        unary minus
          1
