words_train/words_427_SAT.qaiger.qdimacs
p cnf 85 208
a 9 10 11 12 13 14 15 16 0
e 1 2 3 4 5 6 7 8 17 18 19 20 21 22 23 24 25 26 27 28 29 30 31 32 33 34 35 36 37 38 39 40 41 42 43 44 45 46 47 48 49 50 51 52 53 54 55 56 57 58 59 60 61 62 63 64 65 66 67 68 69 70 71 72 73 74 75 76 77 78 79 80 81 82 83 84 85 0
10 9 17 0
-10 -17 0
-9 -17 0
-17 11 18 0
17 -18 0
-11 -18 0
-18 12 19 0
18 -19 0
-12 -19 0
-19 13 20 0
19 -20 0
-13 -20 0
-20 14 21 0
20 -21 0
-14 -21 0
-21 15 22 0
21 -22 0
-15 -22 0
-8 -7 23 0
8 -23 0
7 -23 0
-23 -6 24 0
23 -24 0
6 -24 0
-24 -5 25 0
24 -25 0
5 -25 0
-25 -4 26 0
25 -26 0
4 -26 0
-26 -3 27 0
26 -27 0
3 -27 0
-27 -2 28 0
27 -28 0
2 -28 0
16 -1 29 0
-16 -29 0
1 -29 0
-16 1 30 0
16 -30 0
-1 -30 0
30 29 31 0
-30 -31 0
-29 -31 0
-31 28 32 0
31 -32 0
-28 -32 0
31 -28 33 0
-31 -33 0
28 -33 0
33 32 34 0
-33 -34 0
-32 -34 0
-34 -22 35 0
34 -35 0
22 -35 0
34 22 36 0
-34 -36 0
-22 -36 0
36 35 37 0
-36 -37 0
-35 -37 0
27 2 38 0
-27 -38 0
-2 -38 0
38 28 39 0
-38 -39 0
-28 -39 0
21 -15 40 0
-21 -40 0
15 -40 0
40 22 41 0
-40 -41 0
-22 -41 0
-41 -39 42 0
41 -42 0
39 -42 0
41 39 43 0
-41 -43 0
-39 -43 0
26 3 44 0
-26 -44 0
-3 -44 0
44 27 45 0
-44 -45 0
-27 -45 0
20 -14 46 0
-20 -46 0
14 -46 0
46 21 47 0
-46 -47 0
-21 -47 0
47 45 48 0
-47 -48 0
-45 -48 0
-47 -45 49 0
47 -49 0
45 -49 0
25 4 50 0
-25 -50 0
-4 -50 0
50 26 51 0
-50 -51 0
-26 -51 0
19 -13 52 0
-19 -52 0
13 -52 0
52 20 53 0
-52 -53 0
-20 -53 0
53 51 54 0
-53 -54 0
-51 -54 0
-53 -51 55 0
53 -55 0
51 -55 0
24 5 56 0
-24 -56 0
-5 -56 0
56 25 57 0
-56 -57 0
-25 -57 0
18 -12 58 0
-18 -58 0
12 -58 0
58 19 59 0
-58 -59 0
-19 -59 0
59 57 60 0
-59 -60 0
-57 -60 0
23 6 61 0
-23 -61 0
-6 -61 0
61 24 62 0
-61 -62 0
-24 -62 0
17 -11 63 0
-17 -63 0
11 -63 0
63 18 64 0
-63 -64 0
-18 -64 0
-64 -62 65 0
64 -65 0
62 -65 0
64 62 66 0
-64 -66 0
-62 -66 0
23 17 67 0
-23 -67 0
-17 -67 0
9 -8 68 0
-9 -68 0
8 -68 0
68 -10 69 0
-68 -69 0
10 -69 0
-69 7 70 0
69 -70 0
-7 -70 0
70 -67 71 0
-70 -71 0
67 -71 0
-71 66 72 0
71 -72 0
-66 -72 0
-59 -57 73 0
59 -73 0
57 -73 0
73 72 74 0
-73 -74 0
-72 -74 0
-74 65 75 0
74 -75 0
-65 -75 0
75 60 76 0
-75 -76 0
-60 -76 0
76 55 77 0
-76 -77 0
-55 -77 0
77 54 78 0
-77 -78 0
-54 -78 0
78 49 79 0
-78 -79 0
-49 -79 0
79 48 80 0
-79 -80 0
-48 -80 0
-80 43 81 0
80 -81 0
-43 -81 0
81 42 82 0
-81 -82 0
-42 -82 0
82 37 83 0
-82 -83 0
-37 -83 0
-82 -37 84 0
82 -84 0
37 -84 0
84 83 85 0
-84 -85 0
-83 -85 0
85 0
